10
-1 92 39 45 6 1 54 35 42 79
98 -1 88 90 78 21 87 68 47 11
30 49 -1 94 24 6 60 92 95 48
54 3 53 -1 83 89 24 80 25 67
87 16 99 75 -1 64 14 46 6 68
20 19 49 63 35 -1 8 39 21 37
45 71 28 14 39 95 -1 17 96 87
15 53 91 48 48 93 73 -1 81 79
36 2 88 19 37 52 39 34 -1 19
95 48 100 26 84 60 3 15 30 -1